500
294
93
384
190
540
440
68
306
640
360
893
360
150
516
64
147
507
336
675
420
624
451
496
480
629
338
308
165
900
120
29
736
36
275
546
62
539
418
432
315
578
510
164
60
893
481
26
43
448
650
156
392
138
385
364
126
465
624
481
27
264
330
510
480
377
940
540
475
129
544
147
380
196
360
442
1040
615
330
720
407
312
396
429
50
507
522
322
315
150
588
31
588
266
216
748
612
306
400
